c strEdges: 125  randomEdges: 504 
c degrees:  1  2 
c girth: Inf max: -43.604516  
c Hgirth mixed MAXCUT instance
c generated from an undirected graph
c to solve unweighted MaxCut
p cnf 140 1258
128 130 0
-128 -130 0
128 113 0
-128 -113 0
115 123 0
-115 -123 0
59 72 0
-59 -72 0
59 40 0
-59 -40 0
18 9 0
-18 -9 0
138 64 0
-138 -64 0
138 33 0
-138 -33 0
35 126 0
-35 -126 0
35 26 0
-35 -26 0
106 77 0
-106 -77 0
114 43 0
-114 -43 0
114 52 0
-114 -52 0
28 55 0
-28 -55 0
28 70 0
-28 -70 0
100 4 0
-100 -4 0
100 55 0
-100 -55 0
140 133 0
-140 -133 0
140 51 0
-140 -51 0
93 32 0
-93 -32 0
93 139 0
-93 -139 0
15 139 0
-15 -139 0
15 10 0
-15 -10 0
83 121 0
-83 -121 0
29 62 0
-29 -62 0
29 122 0
-29 -122 0
25 40 0
-25 -40 0
25 12 0
-25 -12 0
99 27 0
-99 -27 0
99 127 0
-99 -127 0
21 31 0
-21 -31 0
65 124 0
-65 -124 0
65 78 0
-65 -78 0
41 12 0
-41 -12 0
42 26 0
-42 -26 0
42 31 0
-42 -31 0
116 122 0
-116 -122 0
74 127 0
-74 -127 0
74 133 0
-74 -133 0
92 105 0
-92 -105 0
92 9 0
-92 -9 0
88 94 0
-88 -94 0
88 68 0
-88 -68 0
49 73 0
-49 -73 0
49 43 0
-49 -43 0
79 132 0
-79 -132 0
79 27 0
-79 -27 0
2 45 0
-2 -45 0
101 86 0
-101 -86 0
101 111 0
-101 -111 0
6 70 0
-6 -70 0
6 132 0
-6 -132 0
84 16 0
-84 -16 0
84 44 0
-84 -44 0
97 10 0
-97 -10 0
97 137 0
-97 -137 0
129 104 0
-129 -104 0
129 109 0
-129 -109 0
71 17 0
-71 -17 0
71 47 0
-71 -47 0
8 23 0
-8 -23 0
36 66 0
-36 -66 0
36 61 0
-36 -61 0
53 39 0
-53 -39 0
53 72 0
-53 -72 0
34 112 0
-34 -112 0
80 38 0
-80 -38 0
80 23 0
-80 -23 0
102 30 0
-102 -30 0
102 7 0
-102 -7 0
1 136 0
-1 -136 0
5 37 0
-5 -37 0
5 73 0
-5 -73 0
63 48 0
-63 -48 0
63 64 0
-63 -64 0
95 44 0
-95 -44 0
95 46 0
-95 -46 0
69 51 0
-69 -51 0
69 37 0
-69 -37 0
81 60 0
-81 -60 0
81 48 0
-81 -48 0
118 107 0
-118 -107 0
118 38 0
-118 -38 0
67 109 0
-67 -109 0
67 123 0
-67 -123 0
98 57 0
-98 -57 0
58 47 0
-58 -47 0
58 66 0
-58 -66 0
96 19 0
-96 -19 0
96 105 0
-96 -105 0
135 111 0
-135 -111 0
135 94 0
-135 -94 0
75 110 0
-75 -110 0
75 134 0
-75 -134 0
11 20 0
-11 -20 0
11 91 0
-11 -91 0
82 125 0
-82 -125 0
82 45 0
-82 -45 0
56 76 0
-56 -76 0
56 136 0
-56 -136 0
22 68 0
-22 -68 0
22 126 0
-22 -126 0
13 91 0
-13 -91 0
13 104 0
-13 -104 0
14 85 0
-14 -85 0
14 39 0
-14 -39 0
24 33 0
-24 -33 0
24 20 0
-24 -20 0
90 134 0
-90 -134 0
90 85 0
-90 -85 0
120 87 0
-120 -87 0
108 46 0
-108 -46 0
108 121 0
-108 -121 0
119 61 0
-119 -61 0
119 86 0
-119 -86 0
3 137 0
-3 -137 0
3 16 0
-3 -16 0
54 103 0
-54 -103 0
50 78 0
-50 -78 0
117 52 0
-117 -52 0
117 32 0
-117 -32 0
89 113 0
-89 -113 0
89 112 0
-89 -112 0
131 7 0
-131 -7 0
131 57 0
-131 -57 0
93 123 0
-93 -123 0
102 105 0
-102 -105 0
2 67 0
-2 -67 0
59 93 0
-59 -93 0
43 32 0
-43 -32 0
65 75 0
-65 -75 0
88 56 0
-88 -56 0
82 14 0
-82 -14 0
71 130 0
-71 -130 0
9 111 0
-9 -111 0
112 33 0
-112 -33 0
27 10 0
-27 -10 0
108 3 0
-108 -3 0
131 39 0
-131 -39 0
65 44 0
-65 -44 0
28 19 0
-28 -19 0
28 100 0
-28 -100 0
71 30 0
-71 -30 0
49 124 0
-49 -124 0
123 103 0
-123 -103 0
83 96 0
-83 -96 0
97 66 0
-97 -66 0
92 103 0
-92 -103 0
9 46 0
-9 -46 0
88 24 0
-88 -24 0
32 39 0
-32 -39 0
53 54 0
-53 -54 0
37 85 0
-37 -85 0
92 4 0
-92 -4 0
114 133 0
-114 -133 0
74 70 0
-74 -70 0
2 123 0
-2 -123 0
32 10 0
-32 -10 0
55 134 0
-55 -134 0
84 122 0
-84 -122 0
2 127 0
-2 -127 0
1 85 0
-1 -85 0
93 97 0
-93 -97 0
102 90 0
-102 -90 0
102 130 0
-102 -130 0
14 89 0
-14 -89 0
83 124 0
-83 -124 0
105 104 0
-105 -104 0
28 119 0
-28 -119 0
77 27 0
-77 -27 0
92 44 0
-92 -44 0
106 40 0
-106 -40 0
31 46 0
-31 -46 0
4 112 0
-4 -112 0
72 78 0
-72 -78 0
84 86 0
-84 -86 0
129 105 0
-129 -105 0
3 23 0
-3 -23 0
128 68 0
-128 -68 0
118 52 0
-118 -52 0
56 17 0
-56 -17 0
100 30 0
-100 -30 0
24 77 0
-24 -77 0
6 105 0
-6 -105 0
55 109 0
-55 -109 0
101 66 0
-101 -66 0
77 51 0
-77 -51 0
58 51 0
-58 -51 0
135 32 0
-135 -32 0
59 74 0
-59 -74 0
67 111 0
-67 -111 0
115 21 0
-115 -21 0
4 33 0
-4 -33 0
106 8 0
-106 -8 0
58 77 0
-58 -77 0
4 45 0
-4 -45 0
100 37 0
-100 -37 0
108 112 0
-108 -112 0
69 108 0
-69 -108 0
24 109 0
-24 -109 0
28 140 0
-28 -140 0
131 19 0
-131 -19 0
102 126 0
-102 -126 0
79 50 0
-79 -50 0
5 121 0
-5 -121 0
112 103 0
-112 -103 0
123 64 0
-123 -64 0
112 7 0
-112 -7 0
27 85 0
-27 -85 0
121 16 0
-121 -16 0
83 113 0
-83 -113 0
133 26 0
-133 -26 0
84 45 0
-84 -45 0
32 76 0
-32 -76 0
56 109 0
-56 -109 0
35 50 0
-35 -50 0
43 12 0
-43 -12 0
108 39 0
-108 -39 0
21 45 0
-21 -45 0
114 87 0
-114 -87 0
31 30 0
-31 -30 0
123 31 0
-123 -31 0
84 52 0
-84 -52 0
131 9 0
-131 -9 0
2 5 0
-2 -5 0
14 77 0
-14 -77 0
129 102 0
-129 -102 0
48 113 0
-48 -113 0
77 17 0
-77 -17 0
119 26 0
-119 -26 0
111 91 0
-111 -91 0
36 32 0
-36 -32 0
97 80 0
-97 -80 0
69 135 0
-69 -135 0
140 85 0
-140 -85 0
99 76 0
-99 -76 0
59 120 0
-59 -120 0
50 137 0
-50 -137 0
4 23 0
-4 -23 0
115 31 0
-115 -31 0
32 20 0
-32 -20 0
8 56 0
-8 -56 0
12 17 0
-12 -17 0
6 24 0
-6 -24 0
29 6 0
-29 -6 0
135 48 0
-135 -48 0
2 129 0
-2 -129 0
104 60 0
-104 -60 0
39 38 0
-39 -38 0
50 86 0
-50 -86 0
48 78 0
-48 -78 0
54 104 0
-54 -104 0
114 69 0
-114 -69 0
95 56 0
-95 -56 0
59 52 0
-59 -52 0
95 108 0
-95 -108 0
17 23 0
-17 -23 0
93 38 0
-93 -38 0
3 104 0
-3 -104 0
139 103 0
-139 -103 0
115 139 0
-115 -139 0
92 32 0
-92 -32 0
43 16 0
-43 -16 0
58 68 0
-58 -68 0
118 108 0
-118 -108 0
139 23 0
-139 -23 0
124 122 0
-124 -122 0
119 57 0
-119 -57 0
84 91 0
-84 -91 0
18 100 0
-18 -100 0
58 96 0
-58 -96 0
121 91 0
-121 -91 0
5 98 0
-5 -98 0
133 66 0
-133 -66 0
102 98 0
-102 -98 0
83 66 0
-83 -66 0
98 135 0
-98 -135 0
11 4 0
-11 -4 0
33 113 0
-33 -113 0
93 39 0
-93 -39 0
8 43 0
-8 -43 0
97 17 0
-97 -17 0
135 117 0
-135 -117 0
6 76 0
-6 -76 0
18 69 0
-18 -69 0
79 126 0
-79 -126 0
109 57 0
-109 -57 0
50 122 0
-50 -122 0
126 38 0
-126 -38 0
65 97 0
-65 -97 0
99 26 0
-99 -26 0
49 20 0
-49 -20 0
6 71 0
-6 -71 0
116 9 0
-116 -9 0
58 64 0
-58 -64 0
108 111 0
-108 -111 0
74 132 0
-74 -132 0
138 14 0
-138 -14 0
6 7 0
-6 -7 0
53 50 0
-53 -50 0
81 89 0
-81 -89 0
54 62 0
-54 -62 0
2 110 0
-2 -110 0
67 112 0
-67 -112 0
82 30 0
-82 -30 0
5 45 0
-5 -45 0
9 78 0
-9 -78 0
124 78 0
-124 -78 0
93 47 0
-93 -47 0
115 125 0
-115 -125 0
127 70 0
-127 -70 0
12 109 0
-12 -109 0
74 120 0
-74 -120 0
102 43 0
-102 -43 0
96 48 0
-96 -48 0
69 55 0
-69 -55 0
99 137 0
-99 -137 0
25 48 0
-25 -48 0
132 7 0
-132 -7 0
22 86 0
-22 -86 0
20 76 0
-20 -76 0
15 60 0
-15 -60 0
15 66 0
-15 -66 0
27 17 0
-27 -17 0
74 73 0
-74 -73 0
21 73 0
-21 -73 0
101 48 0
-101 -48 0
106 41 0
-106 -41 0
90 105 0
-90 -105 0
106 116 0
-106 -116 0
88 109 0
-88 -109 0
129 87 0
-129 -87 0
55 40 0
-55 -40 0
90 57 0
-90 -57 0
38 46 0
-38 -46 0
127 16 0
-127 -16 0
26 48 0
-26 -48 0
16 23 0
-16 -23 0
65 112 0
-65 -112 0
36 121 0
-36 -121 0
11 10 0
-11 -10 0
65 26 0
-65 -26 0
6 38 0
-6 -38 0
140 43 0
-140 -43 0
128 79 0
-128 -79 0
41 5 0
-41 -5 0
43 133 0
-43 -133 0
65 45 0
-65 -45 0
138 36 0
-138 -36 0
138 99 0
-138 -99 0
115 120 0
-115 -120 0
1 76 0
-1 -76 0
36 70 0
-36 -70 0
125 33 0
-125 -33 0
138 45 0
-138 -45 0
102 58 0
-102 -58 0
120 132 0
-120 -132 0
28 77 0
-28 -77 0
115 103 0
-115 -103 0
73 20 0
-73 -20 0
126 4 0
-126 -4 0
129 78 0
-129 -78 0
59 83 0
-59 -83 0
66 7 0
-66 -7 0
40 104 0
-40 -104 0
101 3 0
-101 -3 0
11 126 0
-11 -126 0
41 116 0
-41 -116 0
27 52 0
-27 -52 0
135 125 0
-135 -125 0
97 40 0
-97 -40 0
114 50 0
-114 -50 0
79 20 0
-79 -20 0
53 43 0
-53 -43 0
98 96 0
-98 -96 0
138 61 0
-138 -61 0
92 53 0
-92 -53 0
1 107 0
-1 -107 0
28 1 0
-28 -1 0
5 117 0
-5 -117 0
119 121 0
-119 -121 0
124 104 0
-124 -104 0
114 83 0
-114 -83 0
133 127 0
-133 -127 0
58 20 0
-58 -20 0
124 70 0
-124 -70 0
93 1 0
-93 -1 0
128 24 0
-128 -24 0
50 121 0
-50 -121 0
121 86 0
-121 -86 0
42 122 0
-42 -122 0
53 32 0
-53 -32 0
25 74 0
-25 -74 0
128 21 0
-128 -21 0
101 60 0
-101 -60 0
25 103 0
-25 -103 0
106 129 0
-106 -129 0
84 132 0
-84 -132 0
90 20 0
-90 -20 0
59 51 0
-59 -51 0
42 70 0
-42 -70 0
138 70 0
-138 -70 0
53 105 0
-53 -105 0
70 76 0
-70 -76 0
133 51 0
-133 -51 0
91 61 0
-91 -61 0
29 3 0
-29 -3 0
53 48 0
-53 -48 0
129 76 0
-129 -76 0
122 51 0
-122 -51 0
25 107 0
-25 -107 0
88 85 0
-88 -85 0
23 37 0
-23 -37 0
124 10 0
-124 -10 0
108 10 0
-108 -10 0
59 58 0
-59 -58 0
18 97 0
-18 -97 0
36 110 0
-36 -110 0
123 105 0
-123 -105 0
139 51 0
-139 -51 0
64 51 0
-64 -51 0
102 104 0
-102 -104 0
92 113 0
-92 -113 0
24 70 0
-24 -70 0
11 90 0
-11 -90 0
50 61 0
-50 -61 0
63 24 0
-63 -24 0
95 37 0
-95 -37 0
100 12 0
-100 -12 0
18 30 0
-18 -30 0
107 57 0
-107 -57 0
79 85 0
-79 -85 0
24 73 0
-24 -73 0
75 89 0
-75 -89 0
80 26 0
-80 -26 0
71 22 0
-71 -22 0
2 109 0
-2 -109 0
25 66 0
-25 -66 0
31 127 0
-31 -127 0
18 44 0
-18 -44 0
54 27 0
-54 -27 0
80 126 0
-80 -126 0
9 110 0
-9 -110 0
73 78 0
-73 -78 0
29 70 0
-29 -70 0
6 58 0
-6 -58 0
140 33 0
-140 -33 0
65 2 0
-65 -2 0
93 48 0
-93 -48 0
3 51 0
-3 -51 0
79 127 0
-79 -127 0
108 125 0
-108 -125 0
112 46 0
-112 -46 0
24 94 0
-24 -94 0
58 82 0
-58 -82 0
111 110 0
-111 -110 0
56 14 0
-56 -14 0
93 66 0
-93 -66 0
81 73 0
-81 -73 0
120 26 0
-120 -26 0
21 26 0
-21 -26 0
120 3 0
-120 -3 0
49 85 0
-49 -85 0
9 38 0
-9 -38 0
84 38 0
-84 -38 0
53 60 0
-53 -60 0
95 119 0
-95 -119 0
84 111 0
-84 -111 0
25 92 0
-25 -92 0
67 14 0
-67 -14 0
29 108 0
-29 -108 0
121 132 0
-121 -132 0
79 9 0
-79 -9 0
118 132 0
-118 -132 0
118 17 0
-118 -17 0
99 102 0
-99 -102 0
94 19 0
-94 -19 0
67 22 0
-67 -22 0
119 89 0
-119 -89 0
67 105 0
-67 -105 0
133 37 0
-133 -37 0
118 54 0
-118 -54 0
89 62 0
-89 -62 0
101 56 0
-101 -56 0
79 57 0
-79 -57 0
9 132 0
-9 -132 0
81 139 0
-81 -139 0
101 131 0
-101 -131 0
90 52 0
-90 -52 0
115 121 0
-115 -121 0
72 48 0
-72 -48 0
31 137 0
-31 -137 0
89 137 0
-89 -137 0
14 119 0
-14 -119 0
36 104 0
-36 -104 0
4 76 0
-4 -76 0
64 37 0
-64 -37 0
31 45 0
-31 -45 0
116 56 0
-116 -56 0
88 1 0
-88 -1 0
98 50 0
-98 -50 0
25 56 0
-25 -56 0
74 96 0
-74 -96 0
25 127 0
-25 -127 0
136 110 0
-136 -110 0
140 113 0
-140 -113 0
135 16 0
-135 -16 0
49 107 0
-49 -107 0
140 73 0
-140 -73 0
123 66 0
-123 -66 0
21 98 0
-21 -98 0
124 68 0
-124 -68 0
50 94 0
-50 -94 0
106 109 0
-106 -109 0
102 135 0
-102 -135 0
95 39 0
-95 -39 0
6 112 0
-6 -112 0
128 116 0
-128 -116 0
27 109 0
-27 -109 0
26 38 0
-26 -38 0
98 78 0
-98 -78 0
24 50 0
-24 -50 0
24 130 0
-24 -130 0
28 20 0
-28 -20 0
115 70 0
-115 -70 0
114 20 0
-114 -20 0
140 118 0
-140 -118 0
24 124 0
-24 -124 0
2 133 0
-2 -133 0
53 57 0
-53 -57 0
69 26 0
-69 -26 0
126 30 0
-126 -30 0
18 1 0
-18 -1 0
5 81 0
-5 -81 0
17 57 0
-17 -57 0
99 40 0
-99 -40 0
1 81 0
-1 -81 0
58 132 0
-58 -132 0
105 137 0
-105 -137 0
17 134 0
-17 -134 0
104 23 0
-104 -23 0
89 32 0
-89 -32 0
100 60 0
-100 -60 0
114 30 0
-114 -30 0
3 112 0
-3 -112 0
83 81 0
-83 -81 0
63 54 0
-63 -54 0
28 117 0
-28 -117 0
79 84 0
-79 -84 0
56 46 0
-56 -46 0
80 112 0
-80 -112 0
82 61 0
-82 -61 0
93 57 0
-93 -57 0
35 41 0
-35 -41 0
49 118 0
-49 -118 0
140 64 0
-140 -64 0
41 23 0
-41 -23 0
140 120 0
-140 -120 0
81 85 0
-81 -85 0
34 70 0
-34 -70 0
6 47 0
-6 -47 0
108 52 0
-108 -52 0
14 123 0
-14 -123 0
97 94 0
-97 -94 0
93 101 0
-93 -101 0
22 76 0
-22 -76 0
79 16 0
-79 -16 0
28 41 0
-28 -41 0
123 60 0
-123 -60 0
54 126 0
-54 -126 0
8 123 0
-8 -123 0
131 12 0
-131 -12 0
138 50 0
-138 -50 0
108 103 0
-108 -103 0
97 43 0
-97 -43 0
43 51 0
-43 -51 0
97 112 0
-97 -112 0
131 52 0
-131 -52 0
79 105 0
-79 -105 0
121 94 0
-121 -94 0
43 47 0
-43 -47 0
76 78 0
-76 -78 0
27 26 0
-27 -26 0
110 78 0
-110 -78 0
63 103 0
-63 -103 0
98 61 0
-98 -61 0
135 56 0
-135 -56 0
96 94 0
-96 -94 0
38 136 0
-38 -136 0
105 87 0
-105 -87 0
74 117 0
-74 -117 0
25 99 0
-25 -99 0
25 7 0
-25 -7 0
49 23 0
-49 -23 0
138 53 0
-138 -53 0
126 113 0
-126 -113 0
97 104 0
-97 -104 0
32 37 0
-32 -37 0
2 60 0
-2 -60 0
6 43 0
-6 -43 0
90 109 0
-90 -109 0
94 33 0
-94 -33 0
29 4 0
-29 -4 0
115 10 0
-115 -10 0
114 5 0
-114 -5 0
5 24 0
-5 -24 0
126 139 0
-126 -139 0
56 130 0
-56 -130 0
136 87 0
-136 -87 0
79 107 0
-79 -107 0
57 137 0
-57 -137 0
133 31 0
-133 -31 0
8 107 0
-8 -107 0
21 92 0
-21 -92 0
133 122 0
-133 -122 0
118 137 0
-118 -137 0
17 87 0
-17 -87 0
26 111 0
-26 -111 0
99 41 0
-99 -41 0
71 26 0
-71 -26 0
2 104 0
-2 -104 0
50 68 0
-50 -68 0
24 9 0
-24 -9 0
111 68 0
-111 -68 0
60 107 0
-60 -107 0
45 134 0
-45 -134 0
67 134 0
-67 -134 0
51 111 0
-51 -111 0
42 104 0
-42 -104 0
